Instance Name : r101
Date : 2022-07-19
Solution
Route 1 : 14 44 38 43 13
Route 2 : 27 69 30 51 20 32 70
Route 3 : 5 83 61 85 37 93
Route 4 : 45 82 18 84 60 89
Route 5 : 92 42 15 87 57 97
Route 6 : 29 78 34 35 77
Route 7 : 62 11 90 10
Route 8 : 28 12 76 79 3 54 24 80
Route 9 : 95 98 16 86 91 100
Route 10 : 52 6
Route 11 : 65 71 9 66 1
Route 12 : 63 64 49 48
Route 13 : 72 75 22 74 58
Route 14 : 59 99 94 96
Route 15 : 2 21 73 41 56 4
Route 16 : 31 88 7
Route 17 : 39 23 67 55 25
Route 18 : 40 53 26
Route 19 : 36 47 19 8 46 17
Route 20 : 33 81 50 68
